#Mass

mass 1 15.999400 # O (water TIP4P/2005)
mass 2  1.008000 # H (water TIP4P/2005)
mass 3 22.989770 # NA
mass 4 35.450000 # CL
mass 5 32.060000 # Si Silica
mass 6 15.999400 # O Silica
mass 7 15.999400 # O Silica
mass 8  1.008000 # H Silica

#Pair Coeff

pair_coeff 1 1 0.18481 3.16500
pair_coeff 2 2 0.00000 0.00000
pair_coeff 3 3 0.10755 2.31000
pair_coeff 4 4 0.10038 4.30000
pair_coeff 5 5 0.09300 3.69720
pair_coeff 6 6 0.12200 3.09140
pair_coeff 7 7 0.05400 3.09142
pair_coeff 8 8 0.01500 0.96662

#Bond

bond_coeff 1   0.0 0.9572 # O H (water TIP4P/2005)
bond_coeff 2 285.0 1.6800 # S O (silica)
bond_coeff 3 495.0 0.9450 # O H (silica)

#Angle

angle_coeff 1   0.00 104.52 # H O H
angle_coeff 2 100.00 149.00 # S O S
angle_coeff 3 50.00 115.00 # S O H
angle_coeff 4 100.00 109.50 # O S O

