# LAMMPS npt input file

variable mu equal -15 # RH = 0%

variable dis index 0.5
variable tfac equal 5.0/3.0

units real
atom_style full
bond_style harmonic
angle_style harmonic
boundary p p p
pair_style lj/cut/tip4p/long 1 2 1 1 0.105 10.0
kspace_style pppm/tip4p 1.0e-4
pair_modify mix arithmetic tail yes
neighbor 2.0 bin
#neigh_modify delay 0 every 1 check yes

read_data second.data
include PARM.lammps

group H2O type 1 2
group NaCl type 3 4
group SiOH type 5 6 7 8
group fluid type 1 2 3 4

fix mymom SiOH momentum 1 linear 1 1 1

dump dp1 all atom 5000 dump.lammpstrj

fix myshk H2O shake 1.0e-4 200 0 b 1 a 1

compute tH2O H2O temp
fix mynvt1 H2O nvt temp 300 300 100
fix_modify mynvt1 temp tH2O

compute tSiOH SiOH temp
fix mynvt2 SiOH nvt temp 300 300 100
fix_modify mynvt2 temp tSiOH

compute tNaCl NaCl temp
fix mynvt3 NaCl nvt temp 300 300 100
fix_modify mynvt3 temp tNaCl

timestep 1.0
thermo 1000

variable a loop 1000
label loop

run 10000
write_data second.data

next a
jump SELF loop
