# LAMMPS input file
# Single PEG in water system
# author : Simon Gravelle
units real
atom_style full
bond_style harmonic
angle_style charmm
dihedral_style charmm
pair_style lj/cut/tip4p/long 1 2 1 1 0.1546 12.0
kspace_style pppm/tip4p 1.0e-5
special_bonds lj 0.0 0.0 0.5
read_data PEG/PEG.data
read_data H2O/H2O.data add append
include PARM.lammps
group H2O type 1 2
group PEG type 3 4 5 6 7
delete_atoms overlap 1.5 H2O PEG mol yes
dump mydmp all atom 1000 dump.lammpstrj
fix myshk H2O shake 1.0e-5 200 0 b 1 a 1
fix mynpt all npt temp 300 300 100 iso 1 1 1000
thermo 1000
run 10000
write_data PEG_H2O.data
