# LAMMPS input file
# Single PEG in water system
# author : Simon Gravelle
units real
atom_style full
bond_style harmonic
angle_style charmm
dihedral_style charmm
pair_style lj/cut/tip4p/long 1 2 1 1 0.1546 12.0
kspace_style pppm/tip4p 1.0e-4
special_bonds lj 0.0 0.0 0.5
read_data data.lammps
include PARM.lammps
group PEG type 3 4 5 6 7
dump mydmp all atom 10 dump.lammpstrj
thermo 1
minimize 1.0e-4 1.0e-6 100 1000
reset_timestep 0
undump mydmp
dump mydmp all atom 1000 dump.lammpstrj
fix mynve all nve
fix myber all temp/berendsen 300 300 100
variable mytemp equal temp
variable myvol equal vol
fix myat1 all ave/time 10 10 100 v_mytemp file temperature.dat
fix myat2 all ave/time 10 10 100 v_myvol file volume.dat
timestep 1
thermo 1000
run 10000
change_box all x final -10.5 10.5  y final -10.5 10.5  z final -10.5 10.5    
run 10000
write_data PEG.data
